1606813200
1606827600
1606900800
1606915200
1606986000
1607000400
1607072400
1607086800
1607333400
1607347800
1607418900
1607433300
1607504400
1607518800
1607590800
1607605200
1607677200
1607691600
1607936400
1607950800
1608024600
1608039000
1608109200
1608123600
1608195600
1608210000
1608282000
1608296400
1608541200
1608555600
1608627600
1608642000
1609147800
1609162200
1609232400
1609246800
